20 15

7 6 9 15 8 14 12 9
14 10 10 9 1 5 8 10 6 4 12 8
1 15 6 6 4 9 11 9 13 12
5 15 4 2 12 12 13 10
10 5 2 2 13 8 3 7
7 2 5 8 1 6 13 9 3 4 12 11
6 9 11 10 10 8 15 9
10 3 4 4 3 9 7 9 6 11 1 9
6 12 14 10 12 12 11 6 1 13
10 14 12 2 6 9 15 15 2 6 1 8
3 15 7 7 8 14 4 14
11 4 15 6 1 6 9 3 14 13
6 6 1 14 5 12 13 15
13 11 1 7 9 11 6 13 2 7
14 3 1 2 9 7 12 12 6 9 11 5
5 4 2 6 7 9 8 3
5 2 10 15 14 9 11 3 4 13
8 11 6 7 10 5 1 15 12 13 11 12
6 11 1 9 9 6 2 14 7 5
8 8 6 6 4 3 10 10
